311632
627
628
626
625
992
633
634
635
636
637
638
639
640
641
373
372
371
370
369
378
368
367
366
365
364
363
362
361
360
352
351
350
349
346
347
348
354
357
358
359
353
345
344
341
342
338
339
340
391
392
390
389
393
387
386
385
383
384
395
394
388
379
381
380
382
400
401
399
396
397
398
335
336
337
343
355
356
660
661
662
656
655
657
658
659
642
643
644
653
654
652
651
647
646
645
648
650
649
622
621
623
624
617
618
619
620
730
731
732
616
615
614
613
612
611
610
609
608
607
606
605
604
603
602
601
600
599
597
596
595
594
593
557
556
558
560
559
592
591
574
573
572
571
570
569
568
566
567
517
521
520
518
519
565
564
563
561
562
549
548
547
546
545
540
544
543
542
541
539
537
536
535
533
534
532
531
529
526
528
527
525
522
516
515
523
524
530
999
510
511
512
513
487
486
490
491
492
484
483
493
494
495
496
497
225
226
227
228
229
265
266
267
268
269
271
272
270
260
261
262
246
245
244
263
264
231
230
232
233
235
234
221
220
219
218
217
212
216
215
214
213
211
210
209
208
207
205
206
204
203
201
198
200
199
197
194
193
192
191
190
189
188
239
238
240
242
241
186
187
195
196
202
996
182
183
184
185
159
160
158
162
163
164
156
155
165
166
167
168
169
161
172
171
170
173
174
179
180
181
178
177
176
175
157
154
153
995
150
149
144
143
142
152
151
148
147
146
145
131
130
129
128
127
125
124
123
122
120
121
257
256
255
254
253
249
250
248
247
252
251
243
237
236
222
223
224
498
499
500
489
488
485
482
481
480
479
478
477
471
472
476
475
474
473
459
458
457
456
455
453
452
451
450
448
449
585
584
583
582
581
577
578
575
576
588
589
590
598
587
586
454
432
431
433
434
446
447
445
444
443
442
441
439
438
440
632
631
630
629
437
436
435
997
430
429
428
461
462
463
464
466
465
460
423
424
425
426
427
419
418
420
422
421
405
406
407
410
416
417
415
414
413
412
411
409
408
402
403
404
288
287
286
285
284
299
300
298
297
991
305
306
307
308
309
310
311
312
313
45
44
43
42
49
41
50
40
39
38
37
36
35
34
33
32
24
23
22
21
18
19
20
26
29
30
31
25
17
16
13
14
10
11
12
63
64
62
61
65
59
58
57
55
56
67
66
60
51
53
52
54
72
73
71
68
69
70
7
8
9
15
27
28
332
333
334
328
327
329
330
331
314
315
316
325
326
324
323
319
318
317
320
322
321
294
293
295
296
289
290
291
292
46
47
48
84
83
82
78
79
80
81
88
89
87
85
86
90
77
93
94
92
91
99
98
97
96
95
134
133
135
136
138
137
132
100
101
102
103
104
105
106
118
119
117
116
115
114
113
111
110
112
304
303
302
301
283
282
281
280
279
278
277
276
275
274
273
467
468
469
470
998
580
579
514
550
551
552
553
554
555
825
824
823
822
821
811
812
820
819
818
814
815
816
817
828
827
826
829
830
835
836
837
838
839
840
841
813
810
809
808
807
806
805
799
800
804
803
802
801
787
786
785
784
783
781
780
779
778
776
777
913
912
911
910
909
905
906
903
904
916
917
918
922
921
923
924
925
927
926
928
929
930
931
932
933
936
935
934
937
938
939
940
955
956
954
953
993
961
962
963
964
965
966
967
968
969
701
700
699
698
705
697
706
696
695
694
693
692
691
690
689
688
680
679
678
677
674
675
676
682
685
686
687
681
673
672
669
670
666
667
668
719
720
718
717
721
715
714
713
711
712
723
722
716
707
709
708
710
728
729
727
724
725
726
663
664
665
671
683
684
988
989
990
984
983
985
986
987
970
971
972
981
982
980
979
975
974
973
976
978
977
950
949
951
952
945
946
947
948
944
943
942
941
957
958
959
960
769
767
766
768
770
771
772
773
775
774
762
761
760
759
758
757
756
789
790
791
792
794
793
788
751
752
753
754
755
747
746
748
750
749
733
734
735
736
737
739
738
744
745
743
742
741
740
704
703
702
765
764
763
1000
782
914
915
908
907
899
900
901
902
919
920
887
888
886
885
884
883
882
881
880
879
878
877
876
875
874
873
867
866
868
872
871
870
869
865
864
863
861
862
860
859
857
854
856
855
853
850
849
848
845
844
895
894
896
898
897
842
843
851
852
858
0
833
834
831
832
538
509
508
507
502
501
503
506
505
504
259
258
126
994
107
108
109
74
75
76
139
140
141
1
2
5
3
4
6
377
376
375
374
795
796
797
798
1001
889
890
891
892
893
847
846
